5
8
20
1 1.3 1.55 1.75 2.1
17 9 43 24 34 38 29 34 31 9 46 8 22 13 9 33 38 28 42 20 35 47 13 48 26 13 40 48 48 15 18 30 37 48 13 16 43 10 17 39 20 41 6 25 33 48 22 20 37 35 11 23 35 9 45 31 37 39 24 34 19 28 39 26 33 35 34 44 27 5 35 13 39 43 49 16 24 35 8 22 39 40 36 47 47 34 34 16 30 46 29 9 43 28 30 32 42 25 38 38 41 23 46 23 13 37 48 39 49 43 21 33 12 38 16 11 7 48 33 10 33 40 6 32 9 26 20 38 8 36 38 46 33 37 34 8 48 9 16 46 15 12 46 13 10 10 22 17 37 29 17 21 41 26 41 16 45 10 24 23 